(declare-const rvalue_start (_ BitVec 32))
(declare-const lvalue_start (_ BitVec 32))
(declare-const rreturn (_ BitVec 32))
(declare-const lreturn (_ BitVec 32))
(assert (and (= rreturn rvalue_start) (= lreturn lvalue_start)))